
   AbsCon 1.41 (January, 2014) - defaultConfiguration

   
   instance
        framework=CSP  name=Isomorphism-/cluster/gpg/ciaran/sip-benchmarks/benchmarks/LV/g17-/cluster/gpg/ciaran/sip-benchmarks/benchmarks/LV/g26
        parameters=/cluster/gpg/ciaran/sip-benchmarks/benchmarks/LV/g17,/cluster/gpg/ciaran/sip-benchmarks/benchmarks/LV/g26
      

   loading variables...
        nbVariables=64  nbDomainTypes=1  nbTotalValues=5120  domainSizes=(80:64)
          =>  wckTime=0.178  cpuTime=0.308  mem=9M370

   loading objectives...

   loading constraints...
        nbConstraints=113  nbSpecificConstraints=1  nbExtensionStructures=(1,shared:111)  nbConflictsStructures=(1,shared:111,unbuilt:1)
        degrees=(3:4)(4:24)(5:36)  arities=(2:112)(64:1)  types=(AllDifferent:1)(ConstraintHardExtensionV-Bits:112)
          =>  wckTime=0.233  cpuTime=0.36  mem=4M916

   INFO : <!-- Start saving the XML representation -->

   INFO : <!-- Stop saving the XML representation of g26.xml -->

   Solver SolverBacktrack being built... 
          =>  wckTime=0.406  cpuTime=0.51  mem=18M148

   
   search
        run=0  nbConstraintChecks=0  depth=(min:0,max:0,avg:1)  nbEffectivePropagations=430  nbRevisions=2654  nbUselessRevisions=2416
        nbAssignments=192  nbFailedAssignments=192  nbBacktracks=1  nbVisitedNodes=384  nbRestartNogoods=0
          =>  wckTime=0.999  cpuTime=1.494  mem=29M935

   
   global
        nbConstraintChecks=0  nbEffectivePropagations=430  nbRevisions=2654  nbUselessRevisions=2416  nbRestartNogoods=0  solvingWckTime=1.0
        expiredTime=no  totalExploration=yes  nbFoundSolutions=0  Stop=FULL_EXPLORATION
          =>  wckTime=1.406  cpuTime=1.495  mem=29M935

s UNSATISFIABLE
d NODES 192

   totalWckTime=1.309  totalCpuTime=1.502
